param set_len = 52;
param target_sum = 14448416907;
param values := [1] 361992155 [2] 799085628 [3] 950517536 [4] 921454021 [5] 229321028 [6] 392291591 [7] 116863733 [8] 31170789 [9] 443672069 [10] 305941857 [11] 325787111 [12] 404817051 [13] 1031986383 [14] 657122093 [15] 730014042 [16] 876693536 [17] 220076890 [18] 758330791 [19] 479414257 [20] 68328753 [21] 765554003 [22] 171806222 [23] 21492040 [24] 675871501 [25] 536494596 [26] 151318453 [27] 84642287 [28] 741899960 [29] 767174884 [30] 22178945 [31] 352817139 [32] 60459469 [33] 990731032 [34] 592013587 [35] 316574531 [36] 501162575 [37] 924233093 [38] 281828960 [39] 975006958 [40] 473458692 [41] 187158500 [42] 581802060 [43] 474737465 [44] 1027724587 [45] 1043876547 [46] 822821559 [47] 794427983 [48] 344803467 [49] 69542697 [50] 623992779 [51] 677931500 [52] 677390707 ;
